
Gurobi 7.0.1 (win64) logging started 03/26/17 17:42:03

Changed value of parameter LogFile to ProvinceRunOutputs/log_prov12.log
   Prev: gurobi.log  Default: 
Optimize a model with 2568 rows, 119199 columns and 238832 nonzeros
Variable types: 0 continuous, 119199 integer (119199 binary)
Coefficient statistics:
  Matrix range     [1e+00, 1e+05]
  Objective range  [3e-01, 3e+02]
  Bounds range     [1e+00, 1e+00]
  RHS range        [1e+00, 6e+00]
Found heuristic solution: objective 212112
Presolve removed 511 rows and 9000 columns
Presolve time: 0.42s
Presolved: 2057 rows, 110199 columns, 220571 nonzeros

MIP start did not produce a new incumbent solution
MIP start violates constraint R0 by 1189999.000000000

Variable types: 0 continuous, 110199 integer (110199 binary)

Root relaxation: objective 3.247353e+04, 1736 iterations, 0.02 seconds

    Nodes    |    Current Node    |     Objective Bounds      |     Work
 Expl Unexpl |  Obj  Depth IntInf | Incumbent    BestBd   Gap | It/Node Time

     0     0 32473.5267    0   26 212111.962 32473.5267  84.7%     -    0s
H    0     0                    36449.288850 32473.5267  10.9%     -    0s
H    0     0                    34453.128160 32473.5267  5.75%     -    1s
     0     0 32679.9767    0  198 34453.1282 32679.9767  5.15%     -    1s
     0     0 32679.9877    0  200 34453.1282 32679.9877  5.15%     -    2s
     0     0 34007.9493    0  840 34453.1282 34007.9493  1.29%     -    2s
     0     0 34370.1548    0  740 34453.1282 34370.1548  0.24%     -    3s
     0     0 34374.2238    0  735 34453.1282 34374.2238  0.23%     -    4s
     0     0 34449.3296    0  817 34453.1282 34449.3296  0.01%     -    4s
     0     0     cutoff    0      34453.1282 34453.1282  0.00%     -    5s

Explored 0 nodes (7188 simplex iterations) in 5.92 seconds
Thread count was 4 (of 4 available processors)

Solution count 3: 34453.1 36449.3 212112 
Pool objective bound 34453.1

Optimal solution found (tolerance 1.00e-04)
Best objective 3.445312816013e+04, best bound 3.445312816013e+04, gap 0.0000%
Optimize a model with 2620 rows, 119199 columns and 238988 nonzeros
Variable types: 0 continuous, 119199 integer (119199 binary)
Coefficient statistics:
  Matrix range     [1e+00, 1e+05]
  Objective range  [3e-01, 3e+02]
  Bounds range     [1e+00, 1e+00]
  RHS range        [1e+00, 6e+00]
Found heuristic solution: objective 212112
Presolve removed 511 rows and 9000 columns
Presolve time: 0.43s
Presolved: 2109 rows, 110199 columns, 220727 nonzeros

MIP start did not produce a new incumbent solution
MIP start violates constraint R0 by 1189999.000000000

Variable types: 0 continuous, 110199 integer (110199 binary)

Root relaxation: objective 3.247353e+04, 1737 iterations, 0.03 seconds

    Nodes    |    Current Node    |     Objective Bounds      |     Work
 Expl Unexpl |  Obj  Depth IntInf | Incumbent    BestBd   Gap | It/Node Time

     0     0 32473.5267    0   26 212111.962 32473.5267  84.7%     -    0s
H    0     0                    38907.396749 32473.5267  16.5%     -    1s
H    0     0                    38633.310109 32473.5267  15.9%     -    1s
H    0     0                    34453.128160 32473.5267  5.75%     -    1s
     0     0 33047.4725    0  480 34453.1282 33047.4725  4.08%     -    2s
     0     0 33047.4725    0  484 34453.1282 33047.4725  4.08%     -    2s
     0     0 34163.0518    0  738 34453.1282 34163.0518  0.84%     -    2s
     0     0 34417.2470    0  564 34453.1282 34417.2470  0.10%     -    3s
     0     0     cutoff    0      34453.1282 34453.1282  0.00%     -    5s

Explored 0 nodes (7217 simplex iterations) in 5.65 seconds
Thread count was 4 (of 4 available processors)

Solution count 4: 34453.1 38633.3 38907.4 212112 
Pool objective bound 34453.1

Optimal solution found (tolerance 1.00e-04)
Best objective 3.445312816013e+04, best bound 3.445312816013e+04, gap 0.0000%
Optimize a model with 2761 rows, 119199 columns and 239411 nonzeros
Variable types: 0 continuous, 119199 integer (119199 binary)
Coefficient statistics:
  Matrix range     [1e+00, 1e+05]
  Objective range  [3e-01, 3e+02]
  Bounds range     [1e+00, 1e+00]
  RHS range        [1e+00, 6e+00]
Found heuristic solution: objective 212112
Presolve removed 511 rows and 9000 columns
Presolve time: 0.43s
Presolved: 2250 rows, 110199 columns, 221150 nonzeros

MIP start did not produce a new incumbent solution
MIP start violates constraint R0 by 1189999.000000000

Variable types: 0 continuous, 110199 integer (110199 binary)

Root relaxation: objective 3.247488e+04, 1740 iterations, 0.03 seconds

    Nodes    |    Current Node    |     Objective Bounds      |     Work
 Expl Unexpl |  Obj  Depth IntInf | Incumbent    BestBd   Gap | It/Node Time

     0     0 32474.8814    0   26 212111.962 32474.8814  84.7%     -    0s
H    0     0                    37359.922132 32474.8814  13.1%     -    0s
H    0     0                    37311.896247 32474.8814  13.0%     -    1s
H    0     0                    34671.436177 32474.8814  6.34%     -    2s
     0     0 32849.5703    0  309 34671.4362 32849.5703  5.25%     -    2s
     0     0 32849.5873    0  311 34671.4362 32849.5873  5.25%     -    2s
     0     0 34113.4804    0  837 34671.4362 34113.4804  1.61%     -    3s
     0     0 34527.8055    0 1007 34671.4362 34527.8055  0.41%     -    4s
     0     0 34528.4344    0 1015 34671.4362 34528.4344  0.41%     -    4s
     0     0 34600.4593    0 1212 34671.4362 34600.4593  0.20%     -    4s
     0     0     cutoff    0      34671.4362 34671.4362  0.00%     -    7s

Explored 0 nodes (8353 simplex iterations) in 7.05 seconds
Thread count was 4 (of 4 available processors)

Solution count 4: 34671.4 37311.9 37359.9 212112 
Pool objective bound 34671.4

Optimal solution found (tolerance 1.00e-04)
Best objective 3.467143617694e+04, best bound 3.467143617694e+04, gap 0.0000%
Optimize a model with 2767 rows, 119199 columns and 239429 nonzeros
Variable types: 0 continuous, 119199 integer (119199 binary)
Coefficient statistics:
  Matrix range     [1e+00, 1e+05]
  Objective range  [3e-01, 3e+02]
  Bounds range     [1e+00, 1e+00]
  RHS range        [1e+00, 6e+00]
Found heuristic solution: objective 212112
Presolve removed 511 rows and 9000 columns
Presolve time: 0.45s
Presolved: 2256 rows, 110199 columns, 221168 nonzeros

MIP start did not produce a new incumbent solution
MIP start violates constraint R0 by 1189999.000000000

Variable types: 0 continuous, 110199 integer (110199 binary)

Root relaxation: objective 3.247488e+04, 1741 iterations, 0.03 seconds

    Nodes    |    Current Node    |     Objective Bounds      |     Work
 Expl Unexpl |  Obj  Depth IntInf | Incumbent    BestBd   Gap | It/Node Time

     0     0 32474.8814    0   26 212111.962 32474.8814  84.7%     -    0s
H    0     0                    36955.223356 32474.8814  12.1%     -    1s
H    0     0                    36632.547445 32474.8814  11.3%     -    1s
H    0     0                    34671.436177 32474.8814  6.34%     -    1s
     0     0 32860.0860    0  308 34671.4362 32860.0860  5.22%     -    2s
     0     0 32860.1028    0  310 34671.4362 32860.1028  5.22%     -    2s
     0     0 34115.4538    0  836 34671.4362 34115.4538  1.60%     -    3s
     0     0 34115.4899    0  840 34671.4362 34115.4899  1.60%     -    3s
     0     0 34488.0073    0 1026 34671.4362 34488.0073  0.53%     -    3s
     0     0 34488.0743    0 1030 34671.4362 34488.0743  0.53%     -    4s
     0     0 34603.4869    0  994 34671.4362 34603.4869  0.20%     -    4s
     0     0     cutoff    0      34671.4362 34671.4362  0.00%     -    6s

Explored 0 nodes (7805 simplex iterations) in 6.38 seconds
Thread count was 4 (of 4 available processors)

Solution count 4: 34671.4 36632.5 36955.2 212112 
Pool objective bound 34671.4

Optimal solution found (tolerance 1.00e-04)
Best objective 3.467143617694e+04, best bound 3.467143617694e+04, gap 0.0000%
Optimize a model with 3043 rows, 119199 columns and 240257 nonzeros
Variable types: 0 continuous, 119199 integer (119199 binary)
Coefficient statistics:
  Matrix range     [1e+00, 1e+05]
  Objective range  [3e-01, 3e+02]
  Bounds range     [1e+00, 1e+00]
  RHS range        [1e+00, 6e+00]
Found heuristic solution: objective 221022
Presolve removed 511 rows and 9000 columns
Presolve time: 0.43s
Presolved: 2532 rows, 110199 columns, 221996 nonzeros

MIP start did not produce a new incumbent solution
MIP start violates constraint R0 by 1189999.000000000

Variable types: 0 continuous, 110199 integer (110199 binary)

Root relaxation: objective 3.247492e+04, 1744 iterations, 0.03 seconds

    Nodes    |    Current Node    |     Objective Bounds      |     Work
 Expl Unexpl |  Obj  Depth IntInf | Incumbent    BestBd   Gap | It/Node Time

     0     0 32474.9189    0   26 221022.498 32474.9189  85.3%     -    0s
H    0     0                    35622.749761 32474.9189  8.84%     -    1s
H    0     0                    34858.739269 32474.9189  6.84%     -    1s
H    0     0                    34691.667774 32474.9189  6.39%     -    2s
     0     0 33289.7003    0  620 34691.6678 33289.7003  4.04%     -    2s
     0     0 33289.7168    0  622 34691.6678 33289.7168  4.04%     -    3s
     0     0 34269.4735    0  864 34691.6678 34269.4735  1.22%     -    4s
     0     0 34531.9098    0 1070 34691.6678 34531.9098  0.46%     -    5s
     0     0     cutoff    0      34691.6678 34691.6678  0.00%     -    7s

Explored 0 nodes (7804 simplex iterations) in 7.45 seconds
Thread count was 4 (of 4 available processors)

Solution count 4: 34691.7 34858.7 35622.7 221022 
Pool objective bound 34691.7

Optimal solution found (tolerance 1.00e-04)
Best objective 3.469166777428e+04, best bound 3.469166777428e+04, gap 0.0000%
